p wcnf 20 51 64
1 1 0
1 2 0
1 5 0
10 19 13 14 15 0
10 -19 10 14 12 0
10 -19 10 11 12 0
10 16 0
10 17 0
10 18 0
64 -1 -2 -5 0
64 -10 -1 0
64 -10 7 0
64 1 -7 10 0
64 -11 -2 0
64 -11 8 0
64 2 -8 11 0
64 -12 -5 0
64 -12 9 0
64 5 -9 12 0
64 -13 -1 0
64 -13 -7 0
64 1 7 13 0
64 -14 -2 0
64 -14 -8 0
64 2 8 14 0
64 -15 -5 0
64 -15 -9 0
64 5 9 15 0
64 -16 19 0
64 -16 -13 0
64 -16 -14 0
64 -16 -15 0
64 -19 13 14 15 16 0
64 -17 -19 0
64 -17 -10 0
64 -17 -14 0
64 -17 -12 0
64 19 10 14 12 17 0
64 -18 -19 0
64 -18 -10 0
64 -18 -11 0
64 -18 -12 0
64 19 10 11 12 18 0
64 20 21 22 23 0
64 -20 19 0
64 -21 -1 0
64 -21 -7 0
64 -22 -2 0
64 -22 -8 0
64 -23 -5 0
64 -23 -9 0
